2281
2011
8129
220
1918
10
3012
3112
2139
2381
2112
2028
191
2321
3111
8392
1311
8191
3910
112
8211
1809
391
122
2209
1032
31
2021
2309
1829
11
9108
8110
112
1192
9821
1213
2319
8113
198
112
181
1829
3111
812
1012
119
8101
2209
2310
3121
1092
1198
9138
8319
819
9130
8210
1213
1139
1912
1231
231
2101
203
3011
1121
1308
9218
2911
311
918
2023
2801
1312
2903
1021
1932
1119
1120
12
2932
1193
1191
1321
1129
2139
1281
3902
22
3289
128
918
9312
1212
201
1022
182
181
801
